Route #1: 18 15 36 41 26 37 29 3 4 28 32 16 34 27 40 25
Route #2: 38 43 31 10 5 24 12 39 23 9 11
Route #3: 14 35 42 33 22 7 20
Route #4: 17 19 21 2 44 13
Route #5: 8 30
Route #6: 1 6
Route #7: 
cost 1023.1599221371259
